%%% static parameters %%%
timespan = 1;
Fact = [2];
Distr1 = [5];
Distr2 = [10];
Clients_N = [60];
Demand_W = [15];
Lt0 = [4];
Lt1 = [4];
SS_ = [0.85];
DS_D = [8];
K = [200];
MA = [500];
%%% dynamic parameters %%%
lost_ratio_sales_ret_th = 0.8646888440159642;
lost_ratio_sales_ret_w = 37;
lost_ratio_sales_dis_th = 0.28850875065626613;
lost_ratio_sales_dis_w = 2;
lost_ratio_sales_fac_th = 0.7008791329233072;
lost_ratio_sales_fac_w = 12;
stock_customer_MA_mean_relative_th = 0.20779474483830385;
stock_customer_MA_mean_relative_w = 75;
stock_distributor_MA_mean_relative_th = 0.0010486319371728614;
stock_distributor_MA_mean_relative_w = 24;
stock_retailer_MA_mean_relative_th = 0.4004411822118601;
stock_retailer_MA_mean_relative_w = 82;
stock_factory_MA_mean_relative_th = 0.0008300905566219763;
stock_factory_MA_mean_relative_w = 71;
